%chk=pyNHC_WCO5.chk
%mem=89GB
%nprocshared=18
#p opt=tight freq=(Raman,printderivatives) wb97xd/genecp nosymm scf=(maxcycles=600,xqc)

PyNHC on Au

0 1
 Au               0   -0.04469300    0.07945500   -0.09787100
 Au              -1    2.89906500    0.00001200    0.00002700
 Au              -1   -0.00030500    5.02125600   -0.00018200
 Au              -1   -1.44954500   -0.83699100   -2.49779500
 Au              -1   -4.34871500   -0.83688200   -2.49781100
 Au              -1   -0.00006600    1.67391300   -2.49781600
 Au              -1   -2.89897400    1.67389900   -2.49784900
 Au              -1   -1.44957400    4.18446800   -2.49776500
 Au              -1   -7.24784000   -2.51072000    0.00002200
 Au              -1   -4.34866200   -2.51068600   -0.00002200
 Au              -1   -5.79822700   -0.00001300   -0.00001800
 Au               0   -2.92188400    0.05875000   -0.11156700
 Au              -1   -4.34844000    2.51080700    0.00002700
 Au               0   -1.49566700    2.56364400    0.36855700
 Au              -1    1.44957200   -0.83687600   -2.49778300
 Au              -1   -1.44960400   -2.51065700    0.00005100
 Au              -1    1.44950400   -2.51067700   -0.00000400
 Au              -1    4.34870000   -2.51072000    0.00000100
 Au              -1    1.44925000    2.51081600   -0.00010900
 Au              -1   -2.89883100    5.02126800   -0.00007700
 Au              -1   -1.44956700    7.53219400    0.00018200
 Au               0   -1.50440200    0.35153300    2.19935300
 C                0   -1.49051500    0.03286200    4.25660200
 N                0   -0.38937200   -0.06158200    5.03553700
 C                0   -2.10069000   -0.52296500    8.71840100
 C                0   -0.11534100   -0.36504300    7.58932800
 C                0   -0.79214800   -0.23447000    6.36742300
 C                0   -2.87388800   -0.39727800    7.57936300
 C                0   -2.19690100   -0.24985100    6.36379000
 H                0    0.96090900   -0.35207200    7.66318500
 N                0   -2.59723400   -0.08676800    5.03730900
 C                0   -3.99525200   -0.09300900    4.44850500
 C                0    1.01006800   -0.03443200    4.45154600
 C                0    1.24197300    1.30525900    3.74040600
 H                0    0.57831100    1.45921100    2.88750500
 H                0    2.26508600    1.33040700    3.35434900
 H                0    1.10857400    2.14028000    4.43362900
 C                0    1.17199000   -1.22811500    3.50064700
 H                0    1.02741400   -2.17148500    4.03505100
 H                0    2.18047800   -1.21958700    3.07592200
 H                0    0.46715000   -1.19847400    2.66731300
 C                0   -4.25670800    1.23903500    3.73274900
 H                0   -4.14183700    2.07853000    4.42384600
 H                0   -5.27938200    1.23916600    3.34527400
 H                0   -3.59811200    1.40642400    2.87824100
 C                0   -4.12739000   -1.29479400    3.50293400
 H                0   -5.13057400   -1.30451900    3.06634200
 H                0   -3.97157500   -2.23210900    4.04483700
 H                0   -3.41547900   -1.25616200    2.67571800
 H                0   -2.58737500   -0.63951900    9.68276600
 H                0   -3.94590800   -0.41174900    7.67086100
 C                0   -5.06686200   -0.24451400    5.53032300
 H                0   -4.98549100   -1.19293100    6.06550300
 H                0   -5.06676900    0.59123300    6.23374900
 H                0   -6.03487100   -0.24227600    5.02462600
 C                0    2.07991500   -0.16565000    5.53696100
 H                0    2.05890500    0.66777400    6.24270800
 H                0    2.01576600   -1.11652000    6.07010000
 H                0    3.05048600   -0.14189300    5.03669500
 N                0   -0.76163100   -0.50836100    8.73646100
 W                0    0.29150367   -0.70402965   10.50776593
 C                0   -0.97874248    0.65662531   11.41330046
 C                0   -0.95840917   -2.25168331   11.07994253
 C                0    1.56174982   -2.06468462    9.60223140
 C                0    1.54141650    0.84362401    9.93558933
 C                0    1.34463834   -0.89969830   12.27907086
 O                0    1.91211003   -1.00513251   13.23352183
 O                0   -1.63191292   -3.08562190   11.38825450
 O                0   -1.66320265    1.38980143   11.90123921
 O                0    2.21492026    1.67756260    9.62727735
 O                0    2.24620999   -2.79786073    9.11429265

H C N O Cl 0
6-31G(d,p)
****
Au W 0
def2svp
****

Au W 0
def2svp

